s SATISFIABLE
v <instantiation>
v   <list> X ArrayA[0] ArrayA[1] ArrayA[2] ArrayB[0][0] ArrayB[0][1] ArrayB[1][0] ArrayB[1][1] ArrayC[0][0][0] ArrayC[0][0][1] ArrayC[0][1][0] ArrayC[0][1][1] ArrayC[1][0][0] ArrayC[1][0][1] ArrayC[1][1][0] ArrayC[1][1][1] X1 </list>
v   <values> 0 1 1 1 2 2 -2 -2 -3 -3 -3 -3 -3 -3 -3 -3 0 </values>
v </instantiation>
